(set-logic ALL)
(synth-fun P ((a Bool) (b Bool) (c Bool) (d Bool)) Bool
((Start Bool))
(
(Start Bool (
a
b
c
d
(not Start)
  (= Start Start)
  (or Start Start)
  (ite Start Start Start)
  ))
))


(check-synth)
